outputs/case_81.model.txt
actuary_fair_and_true = False
risk_capital = 1000000
net_worth = -100
external_review_fair_and_true = False
net_worth_ratio_prev2 = 1
net_worth_ratio_prev1 = 1
own_capital = 400000
actuary_reports_fair_and_true = True
actuary_and_external_review_compliance = False
internal_handling_established = True
signing_actuary_assigned = True
capital_level_consistent = True
act_148_3_compliance = True
act_171_1_compliance = True
capital_level = 4
external_review_reports_fair_and_true = True
board_approval_for_external_review = True
board_approval_for_actuary = True
internal_control_executed = True
act_144_compliance = True
external_review_actuary_hired = True
actuary_employed = True
penalty = False
internal_handling_executed = True
act_171_compliance = False
internal_control_established = True
/0 = [else -> 2/5]